%%% static parameters %%%
timespan = 1;
initial_fruit_bushes = [40];
initial_foragers = [40];
ticks_to_flee = [100];
bush_growth_chance = [10];
rate_of_mutation = [5.0];
%%% dynamic parameters %%%
mean_strength_th = 0.5022628460737096;
mean_strength_w = 24;
mean_speed_th = 0.3662567244419441;
mean_speed_w = 60;
mean_intelligence_th = 0.9992141009155092;
mean_intelligence_w = 93;
murder_rate_th = 0.7550436395978155;
murder_rate_w = 9;
age_death_rate_th = 0.831872076970788;
age_death_rate_w = 49;
starvation_rate_th = 0.8888481210750906;
starvation_rate_w = 26;
mean_reactive_aggression_th = 0.4942090671122811;
mean_reactive_aggression_w = 57;
mean_proactive_aggression_th = 0.5185814739846772;
mean_proactive_aggression_w = 41;
